
$rem
 jobtype = freq
 method = b3lyp
 basis = 6-31g**
 scf_convergence = 8
 xc_grid = 000100000302
 chelpg = true
 molden_format = false
$end

