
$rem
 jobtype = opt
 method = b3lyp
 basis = 6-31g(d,p)
 sym_ignore = true
 symmetry = false
$end

