
$rem
 jobtype = eda
 method = b3lyp
 basis = 6-31g**
 scf_convergence = 8
 thresh = 11
 xc_grid = 000100000302
 frgm_method = stoll
 frgm_lpcorr = rs_exact_scf
 chelpg = true
 molden_format = false
 sym_ignore = true
 symmetry = false
$end

