
$rem
 jobtype = eda
 method = b3lyp
 basis = 6-31g**
 scf_convergence = 8
 thresh = 11
 xc_grid = 000100000302
 frgm_method = stoll
 frgm_lpcorr = rs_exact_scf
 eda_covp = true
 eda_print_covp = true
 chelpg = false
 molden_format = false
 scf_print_frgm = false
 sym_ignore = true
 symmetry = false
$end

